n = 15;
m = 58;

max_len = 5;
word_lens = [ 4, 4, 4, 4, 4, 4, 4, 4, 4, 4, 4, 4, 4, 4, 4, 4, 4, 4, 4, 4, 4, 4, 4, 4, 4, 4, 4, 4, 4, 4, 4, 4, 4, 4, 4, 4, 4, 4, 4, 5, 5, 5, 5, 5, 5, 5, 5, 5, 5, 5, 5, 5, 5, 5, 5, 5, 5, 5 ];
words = [| W, O, R, K, E | W, E, E, K, E | T, U, R, N, E | P, L, A, Y, E | T, A, S, K, E | S, O, U, R, E | T, O, I, L, E | M, A, K, E, E | D, U, T, Y, E | H, I, R, E, E | C, R, O, P, E | L, I, C, K, E | M, O, O, N, E | W, H, A, T, E | D, E, A, L, E | P, L, O, W, E | M, O, L, D, E | F, O, R, M, E | L, I, N, E, E | N, O, O, N, E | M, O, R, N, E | H, E, L, P, E | W, A, S, H, E | G, A, M, E, E | B, U, L, L, E | L, A, N, D, E | B, O, O, K, E | H, E, R, O, E | S, P, O, T, E | P, O, S, T, E | D, U, S, K, E | L, A, S, T, E | E, V, E, N, E | D, I, E, L, E | I, S, H, A, E | C, A, M, E, E | H, E, L, D, E | D, A, Y, S, E | L, A, T, E, E | M, O, N, E, Y | L, A, B, O, R | S, T, U, D, Y | B, R, I, N, G | T, O, D, A, Y | F, O, R, G, E | P, L, A, C, E | N, I, G, H, T | W, R, E, A, K | S, O, L, V, E | K, N, E, A, D | C, A, P, E, R | C, H, O, R, E | S, T, I, N, T | S, H, A, P, E | M, O, U, L, D | A, P, P, L, Y | B, E, R, T, H | C, H, E, A, T |];

pos_var_strat = smallest;
pos_val_strat = indomain_min;
